c 1  X  1 Garden of Eden problem with plain symmetry
p cnf 10 190
a 1 0
e 2 3 4 5 6 7 8 9 10 0
3 4 5 7 8 9 10 -1 0
2 4 5 7 8 9 10 -1 0
2 3 5 7 8 9 10 -1 0
2 3 4 7 8 9 10 -1 0
2 3 4 5 8 9 10 -1 0
2 3 4 5 7 9 10 -1 0
2 3 4 5 7 8 10 -1 0
2 3 4 5 7 8 9 -1 0
-2 -3 4 5 7 8 9 10 -6 1 0
-2 -3 4 5 7 8 9 10 6 -1 0
-2 3 -4 5 7 8 9 10 -6 1 0
-2 3 -4 5 7 8 9 10 6 -1 0
-2 3 4 -5 7 8 9 10 -6 1 0
-2 3 4 -5 7 8 9 10 6 -1 0
-2 3 4 5 -7 8 9 10 -6 1 0
-2 3 4 5 -7 8 9 10 6 -1 0
-2 3 4 5 7 -8 9 10 -6 1 0
-2 3 4 5 7 -8 9 10 6 -1 0
-2 3 4 5 7 8 -9 10 -6 1 0
-2 3 4 5 7 8 -9 10 6 -1 0
-2 3 4 5 7 8 9 -10 -6 1 0
-2 3 4 5 7 8 9 -10 6 -1 0
2 -3 -4 5 7 8 9 10 -6 1 0
2 -3 -4 5 7 8 9 10 6 -1 0
2 -3 4 -5 7 8 9 10 -6 1 0
2 -3 4 -5 7 8 9 10 6 -1 0
2 -3 4 5 -7 8 9 10 -6 1 0
2 -3 4 5 -7 8 9 10 6 -1 0
2 -3 4 5 7 -8 9 10 -6 1 0
2 -3 4 5 7 -8 9 10 6 -1 0
2 -3 4 5 7 8 -9 10 -6 1 0
2 -3 4 5 7 8 -9 10 6 -1 0
2 -3 4 5 7 8 9 -10 -6 1 0
2 -3 4 5 7 8 9 -10 6 -1 0
2 3 -4 -5 7 8 9 10 -6 1 0
2 3 -4 -5 7 8 9 10 6 -1 0
2 3 -4 5 -7 8 9 10 -6 1 0
2 3 -4 5 -7 8 9 10 6 -1 0
2 3 -4 5 7 -8 9 10 -6 1 0
2 3 -4 5 7 -8 9 10 6 -1 0
2 3 -4 5 7 8 -9 10 -6 1 0
2 3 -4 5 7 8 -9 10 6 -1 0
2 3 -4 5 7 8 9 -10 -6 1 0
2 3 -4 5 7 8 9 -10 6 -1 0
2 3 4 -5 -7 8 9 10 -6 1 0
2 3 4 -5 -7 8 9 10 6 -1 0
2 3 4 -5 7 -8 9 10 -6 1 0
2 3 4 -5 7 -8 9 10 6 -1 0
2 3 4 -5 7 8 -9 10 -6 1 0
2 3 4 -5 7 8 -9 10 6 -1 0
2 3 4 -5 7 8 9 -10 -6 1 0
2 3 4 -5 7 8 9 -10 6 -1 0
2 3 4 5 -7 -8 9 10 -6 1 0
2 3 4 5 -7 -8 9 10 6 -1 0
2 3 4 5 -7 8 -9 10 -6 1 0
2 3 4 5 -7 8 -9 10 6 -1 0
2 3 4 5 -7 8 9 -10 -6 1 0
2 3 4 5 -7 8 9 -10 6 -1 0
2 3 4 5 7 -8 -9 10 -6 1 0
2 3 4 5 7 -8 -9 10 6 -1 0
2 3 4 5 7 -8 9 -10 -6 1 0
2 3 4 5 7 -8 9 -10 6 -1 0
2 3 4 5 7 8 -9 -10 -6 1 0
2 3 4 5 7 8 -9 -10 6 -1 0
-2 -3 -4 5 7 8 9 10 1 0
-2 -3 4 -5 7 8 9 10 1 0
-2 -3 4 5 -7 8 9 10 1 0
-2 -3 4 5 7 -8 9 10 1 0
-2 -3 4 5 7 8 -9 10 1 0
-2 -3 4 5 7 8 9 -10 1 0
-2 3 -4 -5 7 8 9 10 1 0
-2 3 -4 5 -7 8 9 10 1 0
-2 3 -4 5 7 -8 9 10 1 0
-2 3 -4 5 7 8 -9 10 1 0
-2 3 -4 5 7 8 9 -10 1 0
-2 3 4 -5 -7 8 9 10 1 0
-2 3 4 -5 7 -8 9 10 1 0
-2 3 4 -5 7 8 -9 10 1 0
-2 3 4 -5 7 8 9 -10 1 0
-2 3 4 5 -7 -8 9 10 1 0
-2 3 4 5 -7 8 -9 10 1 0
-2 3 4 5 -7 8 9 -10 1 0
-2 3 4 5 7 -8 -9 10 1 0
-2 3 4 5 7 -8 9 -10 1 0
-2 3 4 5 7 8 -9 -10 1 0
2 -3 -4 -5 7 8 9 10 1 0
2 -3 -4 5 -7 8 9 10 1 0
2 -3 -4 5 7 -8 9 10 1 0
2 -3 -4 5 7 8 -9 10 1 0
2 -3 -4 5 7 8 9 -10 1 0
2 -3 4 -5 -7 8 9 10 1 0
2 -3 4 -5 7 -8 9 10 1 0
2 -3 4 -5 7 8 -9 10 1 0
2 -3 4 -5 7 8 9 -10 1 0
2 -3 4 5 -7 -8 9 10 1 0
2 -3 4 5 -7 8 -9 10 1 0
2 -3 4 5 -7 8 9 -10 1 0
2 -3 4 5 7 -8 -9 10 1 0
2 -3 4 5 7 -8 9 -10 1 0
2 -3 4 5 7 8 -9 -10 1 0
2 3 -4 -5 -7 8 9 10 1 0
2 3 -4 -5 7 -8 9 10 1 0
2 3 -4 -5 7 8 -9 10 1 0
2 3 -4 -5 7 8 9 -10 1 0
2 3 -4 5 -7 -8 9 10 1 0
2 3 -4 5 -7 8 -9 10 1 0
2 3 -4 5 -7 8 9 -10 1 0
2 3 -4 5 7 -8 -9 10 1 0
2 3 -4 5 7 -8 9 -10 1 0
2 3 -4 5 7 8 -9 -10 1 0
2 3 4 -5 -7 -8 9 10 1 0
2 3 4 -5 -7 8 -9 10 1 0
2 3 4 -5 -7 8 9 -10 1 0
2 3 4 -5 7 -8 -9 10 1 0
2 3 4 -5 7 -8 9 -10 1 0
2 3 4 -5 7 8 -9 -10 1 0
2 3 4 5 -7 -8 -9 10 1 0
2 3 4 5 -7 -8 9 -10 1 0
2 3 4 5 -7 8 -9 -10 1 0
2 3 4 5 7 -8 -9 -10 1 0
-2 -3 -4 -5 -1 0
-2 -3 -4 -7 -1 0
-2 -3 -4 -8 -1 0
-2 -3 -4 -9 -1 0
-2 -3 -4 -10 -1 0
-2 -3 -5 -7 -1 0
-2 -3 -5 -8 -1 0
-2 -3 -5 -9 -1 0
-2 -3 -5 -10 -1 0
-2 -3 -7 -8 -1 0
-2 -3 -7 -9 -1 0
-2 -3 -7 -10 -1 0
-2 -3 -8 -9 -1 0
-2 -3 -8 -10 -1 0
-2 -3 -9 -10 -1 0
-2 -4 -5 -7 -1 0
-2 -4 -5 -8 -1 0
-2 -4 -5 -9 -1 0
-2 -4 -5 -10 -1 0
-2 -4 -7 -8 -1 0
-2 -4 -7 -9 -1 0
-2 -4 -7 -10 -1 0
-2 -4 -8 -9 -1 0
-2 -4 -8 -10 -1 0
-2 -4 -9 -10 -1 0
-2 -5 -7 -8 -1 0
-2 -5 -7 -9 -1 0
-2 -5 -7 -10 -1 0
-2 -5 -8 -9 -1 0
-2 -5 -8 -10 -1 0
-2 -5 -9 -10 -1 0
-2 -7 -8 -9 -1 0
-2 -7 -8 -10 -1 0
-2 -7 -9 -10 -1 0
-2 -8 -9 -10 -1 0
-3 -4 -5 -7 -1 0
-3 -4 -5 -8 -1 0
-3 -4 -5 -9 -1 0
-3 -4 -5 -10 -1 0
-3 -4 -7 -8 -1 0
-3 -4 -7 -9 -1 0
-3 -4 -7 -10 -1 0
-3 -4 -8 -9 -1 0
-3 -4 -8 -10 -1 0
-3 -4 -9 -10 -1 0
-3 -5 -7 -8 -1 0
-3 -5 -7 -9 -1 0
-3 -5 -7 -10 -1 0
-3 -5 -8 -9 -1 0
-3 -5 -8 -10 -1 0
-3 -5 -9 -10 -1 0
-3 -7 -8 -9 -1 0
-3 -7 -8 -10 -1 0
-3 -7 -9 -10 -1 0
-3 -8 -9 -10 -1 0
-4 -5 -7 -8 -1 0
-4 -5 -7 -9 -1 0
-4 -5 -7 -10 -1 0
-4 -5 -8 -9 -1 0
-4 -5 -8 -10 -1 0
-4 -5 -9 -10 -1 0
-4 -7 -8 -9 -1 0
-4 -7 -8 -10 -1 0
-4 -7 -9 -10 -1 0
-4 -8 -9 -10 -1 0
-5 -7 -8 -9 -1 0
-5 -7 -8 -10 -1 0
-5 -7 -9 -10 -1 0
-5 -8 -9 -10 -1 0
-7 -8 -9 -10 -1 0
